NAME: rue_15_9
TYPE: TSP
DIMENSION: 15
EDGE_WEIGHT_TYPE: EUC_2D
NODE_COORD_SECTION
1 92 78
2 30 83
3 32 10
4 68 1
5 40 1
6 69 11
7 59 96
8 38 13
9 19 5
10 75 27
11 97 10
12 52 49
13 31 71
14 81 76
15 19 81
